 vasp.5.3.5 31Mar14 (build Oct 26 2016 13:29:44) complex

 executed on  GRP7IFC17NORMALVTST date 2017.07.12  16:51:46

 INCAR:
 POTCAR:    PAW_PBE Cu_pv 06Sep2000
 POTCAR:    PAW_PBE C 08Apr2002
 POTCAR:    PAW_PBE Cu_pv 06Sep2000
   VRHFIN =Cu: d10 p1

   TITEL  = PAW_PBE Cu_pv 06Sep2000
   POMASS =   63.546; ZVAL   =   17.000    mass and valenz
   ENMAX  =  368.648; ENMIN  =  276.486 eV

 POTCAR:    PAW_PBE C 08Apr2002
   VRHFIN =C: s2p2

   TITEL  = PAW_PBE C 08Apr2002
   POMASS =   12.011; ZVAL   =    4.000    mass and valenz
   ENMAX  =  400.000; ENMIN  =  300.000 eV

  PAW_PBE Cu_pv 06Sep2000               :
  PAW_PBE C 08Apr2002                   :

 POSCAR: test
  positions in direct lattice
 exchange correlation table for  LEXCH =        8
   RHO(1)=    0.500       N(1)  =     2000
   RHO(2)=  100.500       N(2)  =     4000

 VTST: version 3.1, (03/28/14)

 CHAIN: initializing optimizer

 OPT: Using VASP Conjugate-Gradient optimizer
 CHAIN: Read ICHAIN            0

 POSCAR: test
  positions in direct lattice

 ion  position               nearest neighbor table
   1  0.000  0.000  0.000-   7 2.51   6 2.51   5 2.51   3 2.51   3 2.51   4 2.51   4 2.51   2 2.51
                             2 2.51
   2  0.000  0.500  0.000-   8 2.51   5 2.51   6 2.51   4 2.51   4 2.51   3 2.51   3 2.51   1 2.51
                             1 2.51
   3  0.500  0.000  0.000-   8 2.51   5 2.51   7 2.51   1 2.51   1 2.51   2 2.51   2 2.51   4 2.51
                             4 2.51
   4  0.500  0.500  0.000-   6 2.51   7 2.51   2 2.51   2 2.51   1 2.51   1 2.51   3 2.51   3 2.51
                             8 2.51
   5  0.167  0.167  0.078-   3 2.51   2 2.51   7 2.51   6 2.51   1 2.51   8 2.51   8 2.51   7 2.51
                             6 2.51  10 2.52   9 2.52  11 2.53
   6  0.167  0.667  0.078-   1 2.51   4 2.51   8 2.51   7 2.51   5 2.51   2 2.51   8 2.51   7 2.51
                             5 2.51   9 2.52  10 2.52  12 2.53
   7  0.667  0.167  0.078-   1 2.51   4 2.51   5 2.51   6 2.51   8 2.51   3 2.51   5 2.51   6 2.51
                             8 2.51  12 2.52  11 2.52   9 2.52
   8  0.667  0.667  0.078-   2 2.51   3 2.51   6 2.51   7 2.51   5 2.51   5 2.51   4 2.51   6 2.51
                             7 2.51  11 2.52  12 2.52  10 2.52
   9  0.334  0.333  0.157-  12 2.50  11 2.50  10 2.51  10 2.51  11 2.52  12 2.52   7 2.52   5 2.52
                             6 2.52
  10  0.334  0.833  0.157-  12 2.50  11 2.50   9 2.51   9 2.51  12 2.52  11 2.52   8 2.52   5 2.52
                             6 2.52
  11  0.832  0.334  0.157-   9 2.50  10 2.50  12 2.51  12 2.51   9 2.52  10 2.52   8 2.52   7 2.52
                             5 2.53
  12  0.832  0.834  0.157-   9 2.50  10 2.50  11 2.51  11 2.51  10 2.52   9 2.52   7 2.52   8 2.52
                             6 2.53
  13  0.993  0.003  0.238-  15 2.44  16 2.44  14 2.51  14 2.51
  14  0.993  0.503  0.238-  17 1.87  16 2.44  15 2.44  13 2.51  13 2.51
  15  0.511  0.995  0.239-  17 1.93  13 2.44  14 2.44  16 2.51  16 2.51
  16  0.511  0.495  0.239-  17 1.93  14 2.44  13 2.44  15 2.51  15 2.51
  17  0.317  0.342  0.285-  14 1.87  16 1.93  15 1.93

  LATTYP: Found a hexagonal cell.
 ALAT       =     5.0196948051
 C/A-ratio  =     5.2209194531

  Lattice vectors:

 A1 = (   2.5098474025,  -4.3471832205,   0.0000000000)
 A2 = (  -5.0196948051,   0.0000000000,   0.0000000000)
 A3 = (   0.0000000000,   0.0000000000, -26.2074222565)

Analysis of symmetry for initial positions (statically):
 Subroutine PRICEL returns:
 Original cell was already a primitive cell.

 Routine SETGRP: Setting up the symmetry group for a
 hexagonal supercell.

 Subroutine GETGRP returns: Found  2 space group operations
 (whereof  2 operations were pure point group operations)
 out of a pool of 24 trial point group operations.

The static configuration has the point symmetry C_1h.

Analysis of symmetry for dynamics (positions and initial velocities):
 Subroutine PRICEL returns:
 Original cell was already a primitive cell.

[...]

The dynamic configuration has the point symmetry C_1h.

Analysis of constrained symmetry for selective dynamics:
 Subroutine PRICEL returns:
 Original cell was already a primitive cell.

 Routine SETGRP: Setting up the symmetry group for a
 hexagonal supercell.

 Subroutine GETGRP returns: Found  2 space group operations
 (whereof  2 operations were pure point group operations)
 out of a pool of 24 trial point group operations.

The constrained configuration has the point symmetry C_1h.

 KPOINTS: A

Automatic generation of k-mesh.
Space group operators:
 irot       det(A)        alpha          n_x          n_y          n_z        tau_x        tau_y        tau_z
    1     1.000000     0.000001     1.000000     0.000000     0.000000     0.000000     0.000000     0.000000
    2    -1.000000   179.999999    -0.500000    -0.866025     0.000000     0.000000     0.000000     0.000000

 Subroutine IBZKPT returns following result:

 Found     13 irreducible k-points:

 Following reciprocal coordinates:
            Coordinates               Weight
  0.000000  0.000000  0.000000      1.000000
  0.166667 -0.000000  0.000000      2.000000
  0.333333  0.000000  0.000000      2.000000
  0.500000 -0.000000  0.000000      1.000000
  0.000000  0.166667  0.000000      4.000000
  0.333333  0.166667  0.000000      4.000000
  0.500000  0.166667  0.000000      4.000000
  0.000000  0.333333  0.000000      4.000000
  0.166667  0.333333  0.000000      2.000000
  0.500000  0.333333  0.000000      4.000000
 -0.333333  0.333333  0.000000      2.000000
  0.000000  0.500000  0.000000      2.000000
  0.166667  0.500000  0.000000      4.000000

 Following cartesian coordinates:
            Coordinates               Weight
  0.000000  0.000000  0.000000      1.000000
  0.033203 -0.019170  0.000000      2.000000
  0.066405 -0.038339  0.000000      2.000000
  0.099608 -0.057509  0.000000      1.000000
  0.000000  0.038339  0.000000      4.000000
  0.066405 -0.000000  0.000000      4.000000
  0.099608 -0.019170  0.000000      4.000000
  0.000000  0.076678  0.000000      4.000000
  0.033203  0.057509  0.000000      2.000000
  0.099608  0.019170  0.000000      4.000000
 -0.066405  0.115017  0.000000      2.000000
  0.000000  0.115017  0.000000      2.000000
  0.033203  0.095848  0.000000      4.000000

 I would recommend the setting:
   dimension x,y,z NGX =    33 NGY =   33 NGZ =  171
 SYSTEM =  unknown system
 POSCAR =  test

 Startparameter for this run:
   NWRITE =      2    write-flag & timer
   PREC   = accura    normal or accurate (medium, high low for compatibility)
   ISTART =      0    job   : 0-new  1-cont  2-samecut
   ICHARG =      2    charge: 1-file 2-atom 10-const
   ISPIN  =      1    spin polarized calculation?
   LNONCOLLINEAR =      F non collinear calculations
   LSORBIT =      F    spin-orbit coupling
   INIWAV =      1    electr: 0-lowe 1-rand  2-diag
   LASPH  =      T    aspherical Exc in radial PAW
   METAGGA=      F    non-selfconsistent MetaGGA calc.

 Electronic Relaxation 1
   ENCUT  =  400.0 eV  29.40 Ry    5.42 a.u.   8.19  8.19 42.74*2*pi/ulx,y,z
   ENINI  =  400.0     initial cutoff
   ENAUG  =  758.2 eV  augmentation charge cutoff
   NELM   =     60;   NELMIN=  5; NELMDL= -5     # of ELM steps
   EDIFF  = 0.1E-04   stopping-criterion for ELM
   LREAL  =      F    real-space projection
   NLSPLINE    = F    spline interpolate recip. space projectors
   LCOMPAT=      F    compatible to vasp.4.4
   GGA_COMPAT  = T    GGA compatible to vasp.4.4-vasp.4.6
   LMAXPAW     = -100 max onsite density
   LMAXMIX     =    2 max onsite mixed and CHGCAR
   VOSKOWN=      0    Vosko Wilk Nusair interpolation
   ROPT   =    0.00000   0.00000
 Ionic relaxation
   EDIFFG = 0.1E-03   stopping-criterion for IOM
   NSW    =    150    number of steps for IOM
   NBLOCK =      1;   KBLOCK =    150    inner block; outer block
   IBRION =      2    ionic relax: 0-MD 1-quasi-New 2-CG
   NFREE  =      1    steps in history (QN), initial steepest desc. (CG)
   ISIF   =      2    stress and relaxation
   IWAVPR =     11    prediction:  0-non 1-charg 2-wave 3-comb
   ISYM   =      2    0-nonsym 1-usesym 2-fastsym
   LCORR  =      T    Harris-Foulkes like correction to forces

   POTIM  = 0.5000    time-step for ionic-motion
   TEIN   =    0.0    initial temperature
   TEBEG  =    0.0;   TEEND  =   0.0 temperature during run
   SMASS  =  -3.00    Nose mass-parameter (am)
   estimated Nose-frequenzy (Omega)   =  0.10E-29 period in steps =****** mass=  -0.576E-27a.u.
   SCALEE = 1.0000    scale energy and forces
   NPACO  =    256;   APACO  = 16.0  distance and # of slots for P.C.
   PSTRESS=    0.0 pullay stress

  Mass of Ions in am
   POMASS =  63.55 12.01
  Ionic Valenz
   ZVAL   =  17.00  4.00
  Atomic Wigner-Seitz radii
  virtual crystal weights
   VCA    =   1.00  1.00
   NELECT =     276.0000    total number of electrons
   NUPDOWN=      -1.0000    fix difference up-down

 DOS related values:
   EMIN   =  10.00;   EMAX   =-10.00  energy-range for DOS
   EFERMI =   0.00
   ISMEAR =     0;   SIGMA  =   0.10  broadening in eV -4-tet -1-fermi 0-gaus

 Electronic relaxation 2 (details)
   IALGO  =     38    algorithm
   LDIAG  =      T    sub-space diagonalisation (order eigenvalues)
   LSUBROT=      F    optimize rotation matrix (better conditioning)
   TURBO    =      0    0=normal 1=particle mesh
   IRESTART =      0    0=no restart 2=restart with 2 vectors
   NREBOOT  =      0    no. of reboots
   NMIN     =      0    reboot dimension
   EREF     =   0.00    reference energy to select bands
   IMIX   =      4    mixing-type and parameters
     AMIX     =   0.40;   BMIX     =  1.00
     AMIX_MAG =   1.60;   BMIX_MAG =  1.00
     AMIN     =   0.10
     WC   =   100.;   INIMIX=   1;  MIXPRE=   1;  MAXMIX= -45

 Intra band minimization:
   WEIMIN = 0.0010     energy-eigenvalue tresh-hold
   EBREAK =  0.15E-07  absolut break condition
   DEPER  =   0.30     relativ break condition

   TIME   =   0.40     timestep for ELM

  volume/ion in A,a.u.               =      33.64       227.02
  Fermi-wavevector in a.u.,A,eV,Ry     =   1.284127  2.426648 22.435767  1.648982
  Thomas-Fermi vector in A             =   2.416339

 Write flags
   LWAVE  =      F    write WAVECAR
   LCHARG =      F    write CHGCAR
   LVTOT  =      F    write LOCPOT, total local potential
   LVHAR  =      F    write LOCPOT, Hartree potential only
   LELF   =      F    write electronic localiz. function (ELF)
   LORBIT =     10    0 simple, 1 ext, 2 COOP (PROOUT)

 Dipole corrections
   LMONO  =      F    monopole corrections only (constant potential shift)
   LDIPOL =      T    correct potential (dipole corrections)
   IDIPOL =      3    1-x, 2-y, 3-z, 4-all directions
   EPSILON=  1.0000000 bulk dielectric constant

 Exchange correlation treatment:
   GGA     =    --    GGA type
   VOSKOWN=      0    Vosko Wilk Nusair interpolation
   LHFCALC =     F    Hartree Fock is set to
   LHFONE  =     F    Hartree Fock one center treatment
   AEXX    =    0.0000 exact exchange contribution

 Linear response parameters
   LEPSILON=     F    determine dielectric tensor
[...]
     -2.69604     -0.38750      0.24356
     -0.38750     -3.14349     -0.14062
      0.24356     -0.14062     -4.21527
  FORCES: max atom, RMS     1.483063    0.459717
  FORCE total and by dimension    1.895461    1.444600
  Stress total and by dimension    5.947866    4.215267

[...]

         DFTD3 V3.0 Rev 1
 Edisp (eV)   -6.04517

[...]

 d Force = 0.9686245E-01[ 0.204E-01, 0.173E+00]  d Energy = 0.9988594E-01-0.302E-02
 d Force = 0.3163475E+03[ 0.312E+03, 0.320E+03]  d Ewald  = 0.3163264E+03 0.211E-01

 stress matrix after NEB project (eV)
     -2.14058     -0.29879      0.22398
     -0.29879     -2.48559     -0.12932
      0.22398     -0.12932     -3.39282
  FORCES: max atom, RMS     0.542264    0.216548
  FORCE total and by dimension    0.892849    0.445339
  Stress total and by dimension    4.752244    3.392823
 Steepest descent step on ions:
 trial-energy change:   -0.099886  1 .order   -0.096862   -0.173325   -0.020400
  (g-gl).g = 0.173E+00      g.g   = 0.173E+00  gl.gl    = 0.000E+00
 g(Force)  = 0.173E+00   g(Stress)= 0.000E+00 ortho     = 0.000E+00
 gamma     =   0.00000
 trial     =   1.00000
 opt step  =   1.11778  (harmonic =   1.13340) maximal distance =0.02518445
 next E    =   -68.379742   (d E  =  -0.10109)

[...]

 d Force = 0.2929485E-01[ 0.111E-01, 0.475E-01]  d Energy = 0.2930312E-01-0.827E-05
 d Force =-0.5444477E+02[-0.568E+02,-0.520E+02]  d Ewald  =-0.5444243E+02-0.234E-02

 stress matrix after NEB project (eV)
     -2.03130     -0.07947     -0.00924
     -0.07947     -2.12306      0.00533
     -0.00924      0.00533     -3.21945
  FORCES: max atom, RMS     0.191903    0.087226
  FORCE total and by dimension    0.359642    0.163890
  Stress total and by dimension    4.360196    3.219451
 Conjugate gradient step on ions:
 trial-energy change:   -0.029303  1 .order   -0.029295   -0.047480   -0.011110
  (g-gl).g = 0.451E-01      g.g   = 0.461E-01  gl.gl    = 0.173E+00
 g(Force)  = 0.461E-01   g(Stress)= 0.000E+00 ortho     = 0.103E-02
 gamma     =   0.26018
 trial     =   1.02356
 opt step  =   1.33623  (harmonic =   1.33623) maximal distance =0.02441862
 next E    =   -68.410763   (d E  =  -0.03099)

[...]

 d Force = 0.2633323E-03[ 0.204E-03, 0.322E-03]  d Energy = 0.2165332E-03 0.468E-04
 d Force =-0.7947153E+02[-0.795E+02,-0.795E+02]  d Ewald  =-0.7947152E+02-0.835E-06

 stress matrix after NEB project (eV)
     -1.65752     -0.01171      0.03875
     -0.01171     -1.67104     -0.02237
      0.03875     -0.02237     -1.97730
  FORCES: max atom, RMS     0.030431    0.012308
  FORCE total and by dimension    0.050746    0.029637
  Stress total and by dimension    3.074697    1.977301
 Conjugate gradient step on ions:
 trial-energy change:   -0.000217  1 .order   -0.000263   -0.000322   -0.000204
  (g-gl).g = 0.304E-03      g.g   = 0.250E-03  gl.gl    = 0.164E-02
 g(Force)  = 0.250E-03   g(Stress)= 0.000E+00 ortho     = 0.338E-04
 gamma     =   0.18552
 trial     =   1.25711
 opt step  =   3.44119  (harmonic =   3.44119) maximal distance =0.00549991
 next E    =   -68.425917   (d E  =  -0.00044)

[...]

 d Force = 0.7479504E-04[-0.206E-03, 0.355E-03]  d Energy = 0.8871740E-04-0.139E-04
 d Force =-0.1381184E+03[-0.138E+03,-0.138E+03]  d Ewald  =-0.1381184E+03-0.440E-05

[...]

 d Force = 0.1158115E-03[-0.518E-03, 0.750E-03]  d Energy = 0.1068940E-03 0.892E-05
 d Force =-0.5029623E+02[-0.503E+02,-0.503E+02]  d Ewald  =-0.5029625E+02 0.171E-04

 stress matrix after NEB project (eV)
     -1.65796     -0.02670      0.06955
     -0.02670     -1.68880     -0.04015
      0.06955     -0.04015     -1.88684
  FORCES: max atom, RMS     0.059361    0.024272
  FORCE total and by dimension    0.100074    0.050528
  Stress total and by dimension    3.029088    1.886842
 Steepest descent step on ions:
 trial-energy change:   -0.000107  1 .order   -0.000116   -0.000750    0.000518
  (g-gl).g = 0.553E-03      g.g   = 0.443E-03  gl.gl    = 0.250E-03
 g(Force)  = 0.443E-03   g(Stress)= 0.000E+00 ortho     =-0.942E-04
 gamma     =   0.00000
 trial     =   1.69393
 opt step  =   1.00163  (harmonic =   1.00163) maximal distance =0.00139121
 next E    =   -68.426003   (d E  =  -0.00022)

 FEWALD executed in parallel

[...]

 eigenvalue-minimisations  :  3240
 total energy-change (2. order) : 0.7903468E-04  (-0.4451693E-04)
 number of electron     275.9999288 magnetization
 augmentation part      173.6597929 magnetization

[...]

 Broyden mixing:
  rms(total) = 0.52014E-02    rms(broyden)= 0.52001E-02
  rms(prec ) = 0.52420E-02
  weight for this iteration     100.00

 eigenvalues of (default mixing * dielectric matrix)
  average eigenvalue GAMMA=   0.6267
  0.9659  0.9659  0.4089  0.1663

[...]

----------------------------------------- Iteration   17(   6)  ---------------------------------------

 eigenvalue-minimisations  :  3576
 total energy-change (2. order) :-0.1951310E-05  (-0.3021542E-05)
 number of electron     275.9999288 magnetization
 augmentation part      173.6597929 magnetization

 DIPCOR: dipole corrections for dipol
 direction  3 min pos   236,
 dipolmoment           0.000000      0.000000      0.100805 electrons x Angstroem
 Tr[quadrupol]     -1359.310204

 energy correction for charged system         0.000000 eV
 dipol+quadrupol energy correction           -0.001608 eV
 added-field ion interaction          7.442586 eV  (added to PSCEN)

 Free energy of the ion-electron system (eV)
  alpha Z        PSCENC =       839.27696839
  Ewald energy   TEWEN  =    283789.39775715
  -Hartree energ DENC   =   -342418.20306331
  -exchange      EXHF   =         0.00000000
  -V(xc)+E(xc)   XCENC  =      1723.23866989
  PAW double counting   =     58079.91847529   -60550.16710423
  entropy T*S    EENTRO =        -0.04574759
  eigenvalues    EBANDS =     -7593.22904999
  atomic energy  EATOM  =     66067.45489428
  free energy    TOTEN  =       -62.35820011 eV

  energy without entropy =      -62.31245252  energy(sigma->0) =      -62.33532632

 average (electrostatic) potential at core
  the test charge radii are     0.8297  0.6991
  (the norm of the test charge is              1.0000)
       1 -87.4513       2 -87.4128       3 -87.4130       4 -87.4130       5 -87.7071
       6 -87.7071       7 -87.7081       8 -87.7214       9 -87.5811      10 -87.6643
      11 -87.6658      12 -87.6658      13 -87.2613      14 -88.2057      15 -88.1914
      16 -88.1914      17 -56.4246

 E-fermi :  -1.0335     XC(G=0):  -5.1060     alpha+bet : -4.3349

[...]

 k-point    13 :       0.1667    0.5000    0.0000
  band No.  band energies     occupation
      1     -71.9023      2.00000
      2     -71.8687      2.00000
      3     -71.8559      2.00000
      4     -71.5657      2.00000
      5     -71.5500      2.00000
      6     -71.5368      2.00000
      7     -71.5191      2.00000
      8     -71.4978      2.00000
      9     -71.4919      2.00000
     10     -71.2085      2.00000
     11     -71.1975      2.00000
     12     -71.1876      2.00000
     13     -71.1799      2.00000
     14     -71.1764      2.00000
     15     -71.1731      2.00000
     16     -71.1668      2.00000
     17     -71.1631      2.00000
     18     -71.1610      2.00000
     19     -71.1516      2.00000
     20     -71.1445      2.00000
     21     -71.1415      2.00000
     22     -71.1306      2.00000
     23     -71.1272      2.00000
     24     -71.1166      2.00000
     25     -71.1123      2.00000
     26     -71.1113      2.00000
     27     -71.1095      2.00000
     28     -71.1079      2.00000
     29     -71.0988      2.00000
     30     -71.0871      2.00000
     31     -71.0445      2.00000
     32     -71.0235      2.00000
     33     -71.0153      2.00000
     34     -70.9485      2.00000
     35     -70.9368      2.00000
     36     -70.9198      2.00000
     37     -70.9032      2.00000
     38     -70.8892      2.00000
     39     -70.8795      2.00000
     40     -70.8726      2.00000
     41     -70.8587      2.00000
     42     -70.8463      2.00000
     43     -70.8188      2.00000
     44     -70.8163      2.00000
     45     -70.8137      2.00000
     46     -70.7516      2.00000
     47     -70.7505      2.00000
     48     -70.6546      2.00000
     49     -12.2159      2.00000
     50      -8.7911      2.00000
     51      -7.7706      2.00000
     52      -7.5454      2.00000
     53      -6.8841      2.00000
     54      -6.7311      2.00000
     55      -6.3193      2.00000
     56      -6.1496      2.00000
     57      -5.9084      2.00000
     58      -5.7790      2.00000
     59      -5.6800      2.00000
     60      -5.6114      2.00000
[...]
    154       5.3957      0.00000
    155       5.7755      0.00000
    156       5.9256      0.00000
    157       6.0538      0.00000
    158       6.2570      0.00000
    159       6.4391      0.00000
    160       6.6881      0.00000
    161       6.9156      0.00000
    162       7.1325      0.00000
    163       7.3323      0.00000
    164       7.3827      0.00000
    165       7.5523      0.00000
    166       7.6040      0.00000
    167       7.7796      0.00000
    168       7.8672      0.00000

 soft charge-density along one line, spin component           1
         0         1         2         3         4         5         6         7         8         9
 total charge-density along one line

------------------------ aborting loop because EDIFF is reached ----------------------------------------

[...]

         DFTD3 V3.0 Rev 1
 Edisp (eV)   -6.06779

 E6    (eV) :    -2.3871
 E8    (eV) :    -3.6807
 % E8        : 60.66

  FORCE on cell =-STRESS in cart. coord.  units (eV):
  Direction    XX          YY          ZZ          XY          YZ          ZX
  Alpha Z   831.83599   831.83599   831.83599
  Ewald  312403.06783312404.68103************     1.39708    -0.87918     1.52272
  Hartree329234.73890329236.09611************     1.17536    -0.48391     0.83814
  E(xc)   -2152.46214 -2152.46138 -2154.96066     0.00041    -0.00023     0.00042
  Local  ************************653363.58355    -2.61748     1.33514    -2.31246
  n-local -1401.00954 -1399.66954 -1404.60261    -0.38235    -0.00545     0.00738
  augment  3002.83685  3002.87289  3011.46471     0.01826     0.00622    -0.01085
  Kinetic  3414.36776  3412.49630  3426.13492     0.56455     0.20689     0.11523
  Fock        0.00000     0.00000     0.00000     0.00000     0.00000     0.00000
  vdW        -7.74499    -7.74901    -4.41889    -0.00348    -0.00024     0.00041
  Total      -1.56554    -1.57534    -1.77899    -0.00848    -0.02427     0.04204
  in kB      -4.38597    -4.41341    -4.98395    -0.02376    -0.06800     0.11778

 VOLUME and BASIS-vectors are now :
  energy-cutoff  :      400.00
  volume of cell :      571.89
      direct lattice vectors                 reciprocal lattice vectors
     5.019694805  0.000000000  0.000000000     0.199215299 -0.115017006  0.000000000
     2.509847403  4.347183220  0.000000000     0.000000000  0.230034013  0.000000000
     0.000000000  0.000000000 26.207422256     0.000000000  0.000000000  0.038157129

  length of vectors
     5.019694805  5.019694805 26.207422256     0.230034013  0.230034013  0.038157129

 FORCES acting on ions
    electron-ion (+dipol)            ewald-force                    non-local-force                 convergence-correction
   -.477E-01 0.275E-01 0.994E+04   0.533E-01 -.308E-01 -.993E+04   -.681E-02 0.393E-02 -.295E+01   0.444E-03 -.256E-03 -.158E-01
   0.745E+00 -.430E+00 0.994E+04   -.584E+00 0.337E+00 -.993E+04   -.169E+00 0.973E-01 -.235E+01   -.953E-04 0.550E-04 -.158E-01
   0.580E-01 0.897E+00 0.994E+04   -.530E-01 -.705E+00 -.993E+04   -.494E-02 -.202E+00 -.236E+01   -.516E-03 -.336E-03 -.152E-01
   -.748E+00 -.499E+00 0.994E+04   0.584E+00 0.398E+00 -.993E+04   0.173E+00 0.105E+00 -.236E+01   0.330E-04 0.615E-03 -.152E-01
   0.129E+02 0.789E+01 0.343E+04   -.127E+02 -.775E+01 -.343E+04   -.300E+00 -.176E+00 -.123E+01   -.149E-02 0.143E-02 -.149E-01
   -.380E+00 -.151E+02 0.343E+04   0.381E+00 0.148E+02 -.343E+04   0.238E-02 0.347E+00 -.123E+01   -.198E-02 0.575E-03 -.149E-01
   -.128E+02 0.738E+01 0.343E+04   0.125E+02 -.723E+01 -.343E+04   0.315E+00 -.182E+00 -.124E+01   0.166E-02 -.957E-03 -.318E-01
   0.373E+00 -.215E+00 0.342E+04   -.365E+00 0.211E+00 -.342E+04   -.127E-01 0.734E-02 -.671E-01   0.206E-02 -.119E-02 -.193E-01
   0.128E+01 -.741E+00 -.303E+04   -.128E+01 0.738E+00 0.302E+04   -.469E-01 0.271E-01 0.256E+01   0.360E-01 -.208E-01 -.249E-01
   0.263E+02 -.152E+02 -.312E+04   -.263E+02 0.152E+02 0.312E+04   -.993E-01 0.573E-01 0.987E+00   0.230E-01 -.133E-01 0.867E-02
   -.851E+00 0.295E+02 -.311E+04   0.825E+00 -.294E+02 0.311E+04   0.546E-01 -.687E-01 0.983E+00   -.261E-01 -.146E-01 -.450E-02
   -.259E+02 -.140E+02 -.311E+04   0.258E+02 0.140E+02 0.311E+04   0.868E-01 -.130E-01 0.983E+00   -.438E-03 0.300E-01 -.450E-02
   0.687E+00 -.397E+00 -.972E+04   -.707E+00 0.408E+00 0.971E+04   -.562E-03 0.325E-03 0.488E+01   0.131E-01 -.753E-02 0.583E-01
   0.307E+02 -.177E+02 -.948E+04   -.311E+02 0.180E+02 0.948E+04   0.521E+00 -.301E+00 -.219E+01   -.623E-01 0.360E-01 -.295E-01
   -.714E+00 0.373E+02 -.950E+04   0.728E+00 -.378E+02 0.950E+04   -.109E-01 0.396E+00 -.220E+01   0.185E-02 0.846E-01 0.602E-01
   -.327E+02 -.180E+02 -.950E+04   0.331E+02 0.182E+02 0.950E+04   -.348E+00 -.188E+00 -.220E+01   -.723E-01 -.439E-01 0.602E-01
   0.992E+00 -.573E+00 -.290E+04   -.986E+00 0.569E+00 0.291E+04   0.132E-01 -.761E-02 -.785E+01   -.823E-02 0.475E-02 0.658E-02
   -.770E-01 0.428E-01 0.178E+02   -.270E-12 -.699E-14 0.100E-10   0.167E+00 -.965E-01 -.178E+02   -.954E-01 0.551E-01 -.125E-01

 POSITION                                       TOTAL-FORCE (eV/Angst)
      0.00000      0.00000      0.00000        -0.000502      0.000290     -0.168952
      1.25492      2.17359      0.00000        -0.007533      0.004349     -0.145122
      2.50985      0.00000      0.00000        -0.000215     -0.009876     -0.145544
      3.76477      2.17359      0.00000         0.008445      0.005125     -0.145544
      1.25492      0.72453      2.04928        -0.055679     -0.034040      0.166064
      2.50985      2.89812      2.04928         0.001640      0.065239      0.166064
      3.76477      0.72453      2.04928         0.056118     -0.032400      0.160074
      5.01969      2.89812      2.04928        -0.002645      0.001527      0.160022
      2.50982      1.44908      4.07763        -0.004514      0.002606      0.003743
      3.76532      3.62233      4.12610        -0.006074      0.003507     -0.006804
      5.01787      1.44933      4.12355         0.002733      0.002335     -0.002227
      6.27347      3.62410      4.12355        -0.000656     -0.003535     -0.002227
     -0.00352      0.00203      6.26743        -0.005859      0.003383     -0.021329
      6.23228      2.19804      6.20928         0.010436     -0.006025      0.002037
      5.01546      4.30964      6.21869         0.005439      0.017214     -0.001481
      3.79517      2.19603      6.21869        -0.012188     -0.013317     -0.001481
      2.49780      1.45602      7.29697         0.011052     -0.006381     -0.017294
    total drift:                               -0.005265      0.001386     -0.008463

  FREE ENERGIE OF THE ION-ELECTRON SYSTEM (eV)
  free  energy   TOTEN  =       -68.42599381 eV

  energy  without entropy=      -68.38024622  energy(sigma->0) =      -68.40312001

 d Force = 0.1211153E-03[ 0.304E-04, 0.212E-03]  d Energy = 0.1060152E-03 0.151E-04
 d Force = 0.2056518E+02[ 0.206E+02, 0.206E+02]  d Ewald  = 0.2056518E+02-0.116E-05

 stress matrix after NEB project (eV)
     -1.56554     -0.00848      0.04204
     -0.00848     -1.57534     -0.02427
      0.04204     -0.02427     -1.77899
  FORCES: max atom, RMS     0.022376    0.010684
  FORCE total and by dimension    0.044053    0.021329
  Stress total and by dimension    2.846448    1.778988

 reached required accuracy - stopping structural energy minimisation

 total charge

# of ion     s       p       d       tot
  1        0.312   6.163   8.869  15.344
  2        0.312   6.160   8.876  15.347
  3        0.312   6.160   8.871  15.344
  4        0.311   6.159   8.879  15.349
  5        0.303   6.207   8.870  15.380
  6        0.301   6.209   8.862  15.373
  7        0.302   6.208   8.866  15.376
  8        0.298   6.208   8.867  15.372
  9        0.296   6.203   8.875  15.374
 10        0.303   6.204   8.863  15.370
 11        0.304   6.203   8.868  15.375
 12        0.303   6.206   8.858  15.367
 13        0.271   6.150   8.910  15.331
 14        0.342   6.243   8.811  15.396
 15        0.339   6.241   8.799  15.380
 16        0.343   6.242   8.824  15.409
 17        0.958   1.296   0.000   2.254
tot        5.909 100.462 141.768 248.138