 vasp.5.3.5 31Mar14 (build Oct 26 2016 13:29:44) complex

 executed on  GRP7IFC17NORMALVTST date 2017.07.12  15:59:46

 INCAR:
 POTCAR:    PAW_PBE Cu_pv 06Sep2000
 POTCAR:    PAW_PBE C 08Apr2002
 POTCAR:    PAW_PBE Cu_pv 06Sep2000
   VRHFIN =Cu: d10 p1

   TITEL  = PAW_PBE Cu_pv 06Sep2000
   POMASS =   63.546; ZVAL   =   17.000    mass and valenz
   ENMAX  =  368.648; ENMIN  =  276.486 eV

 POTCAR:    PAW_PBE C 08Apr2002
   VRHFIN =C: s2p2

   TITEL  = PAW_PBE C 08Apr2002
   POMASS =   12.011; ZVAL   =    4.000    mass and valenz
   ENMAX  =  400.000; ENMIN  =  300.000 eV

  PAW_PBE Cu_pv 06Sep2000               :
  PAW_PBE C 08Apr2002                   :

 POSCAR: test
  positions in direct lattice
 exchange correlation table for  LEXCH =        8
   RHO(1)=    0.500       N(1)  =     2000
   RHO(2)=  100.500       N(2)  =     4000

 VTST: version 3.1, (03/28/14)

 CHAIN: initializing optimizer

 OPT: Using VASP Conjugate-Gradient optimizer
 CHAIN: Read ICHAIN            0

 POSCAR: test
  positions in direct lattice

 ion  position               nearest neighbor table
   1  0.000  0.000  0.000-   7 2.51   6 2.51   5 2.51   3 2.51   3 2.51   4 2.51   4 2.51   2 2.51
                             2 2.51
   2  0.000  0.500  0.000-   8 2.51   5 2.51   6 2.51   4 2.51   4 2.51   3 2.51   3 2.51   1 2.51
                             1 2.51
   3  0.500  0.000  0.000-   8 2.51   5 2.51   7 2.51   1 2.51   1 2.51   2 2.51   2 2.51   4 2.51
                             4 2.51
   4  0.500  0.500  0.000-   6 2.51   7 2.51   2 2.51   2 2.51   1 2.51   1 2.51   3 2.51   3 2.51
                             8 2.51
   5  0.167  0.167  0.078-   3 2.51   2 2.51   7 2.51   6 2.51   1 2.51   8 2.51   8 2.51   7 2.51
                             6 2.51  10 2.53   9 2.53  11 2.53
   6  0.167  0.667  0.078-   1 2.51   4 2.51   8 2.51   7 2.51   5 2.51   2 2.51   8 2.51   7 2.51
                             5 2.51   9 2.53  10 2.53  12 2.53
   7  0.667  0.167  0.078-   1 2.51   4 2.51   5 2.51   6 2.51   8 2.51   3 2.51   5 2.51   6 2.51
                             8 2.51  12 2.52  11 2.52   9 2.53
   8  0.667  0.667  0.078-   2 2.51   3 2.51   6 2.51   7 2.51   5 2.51   5 2.51   4 2.51   6 2.51
                             7 2.51  11 2.52  12 2.52  10 2.53
   9  0.332  0.334  0.157-  11 2.51  12 2.51  10 2.51  10 2.51  12 2.51  11 2.51   5 2.53   6 2.53
                             7 2.53
  10  0.332  0.834  0.157-  12 2.51  11 2.51   9 2.51   9 2.51  12 2.51  11 2.51   5 2.53   6 2.53
                             8 2.53
  11  0.832  0.334  0.157-   9 2.51  10 2.51  12 2.51  12 2.51   9 2.51  10 2.51   8 2.52   7 2.52
                             5 2.53
  12  0.832  0.834  0.157-  10 2.51   9 2.51  11 2.51  11 2.51   9 2.51  10 2.51   7 2.52   8 2.52
                             6 2.53
  13  0.985  0.008  0.239-  17 1.93  15 2.44  16 2.44  14 2.51  14 2.51
  14  0.985  0.508  0.239-  17 1.93  16 2.44  15 2.44  13 2.51  13 2.51
  15  0.504  0.998  0.237-  17 1.86  13 2.44  14 2.44  16 2.51  16 2.51
  16  0.504  0.498  0.237-  14 2.44  13 2.44  15 2.51  15 2.51
  17  0.183  0.158  0.285-  15 1.86  14 1.93  13 1.93

  LATTYP: Found a hexagonal cell.
 ALAT       =     5.0196948051
 C/A-ratio  =     5.2209194531

  Lattice vectors:

 A1 = (   2.5098474025,  -4.3471832205,   0.0000000000)
 A2 = (  -5.0196948051,   0.0000000000,   0.0000000000)
 A3 = (   0.0000000000,   0.0000000000, -26.2074222565)

Analysis of symmetry for initial positions (statically):
 Subroutine PRICEL returns:
 Original cell was already a primitive cell.

 Routine SETGRP: Setting up the symmetry group for a
 hexagonal supercell.

 Subroutine GETGRP returns: Found  2 space group operations
 (whereof  1 operations were pure point group operations)
 out of a pool of 24 trial point group operations.

The static configuration has the point symmetry C_1 .
 The point group associated with its full space group is C_1h.

Analysis of symmetry for dynamics (positions and initial velocities):
 Subroutine PRICEL returns:
 Original cell was already a primitive cell.

[...]

The dynamic configuration has the point symmetry C_1 .
 The point group associated with its full space group is C_1h.

Analysis of constrained symmetry for selective dynamics:
 Subroutine PRICEL returns:
 Original cell was already a primitive cell.

 Routine SETGRP: Setting up the symmetry group for a
 hexagonal supercell.

 Subroutine GETGRP returns: Found  2 space group operations
 (whereof  1 operations were pure point group operations)
 out of a pool of 24 trial point group operations.

The constrained configuration has the point symmetry C_1 .
 The point group associated with its full space group is C_1h.

 KPOINTS: A

Automatic generation of k-mesh.
Space group operators:
 irot       det(A)        alpha          n_x          n_y          n_z        tau_x        tau_y        tau_z
    1     1.000000     0.000001     1.000000     0.000000     0.000000     0.000000     0.000000     0.000000
    2    -1.000000   179.999999    -0.500000    -0.866025     0.000000     0.000000    -0.500000     0.000000

 Subroutine IBZKPT returns following result:

 Found     13 irreducible k-points:

 Following reciprocal coordinates:
            Coordinates               Weight
  0.000000  0.000000  0.000000      1.000000
  0.166667 -0.000000  0.000000      2.000000
  0.333333  0.000000  0.000000      2.000000
  0.500000 -0.000000  0.000000      1.000000
  0.000000  0.166667  0.000000      4.000000
  0.333333  0.166667  0.000000      4.000000
  0.500000  0.166667  0.000000      4.000000
  0.000000  0.333333  0.000000      4.000000
  0.166667  0.333333  0.000000      2.000000
  0.500000  0.333333  0.000000      4.000000
 -0.333333  0.333333  0.000000      2.000000
  0.000000  0.500000  0.000000      2.000000
  0.166667  0.500000  0.000000      4.000000

 Following cartesian coordinates:
            Coordinates               Weight
  0.000000  0.000000  0.000000      1.000000
  0.033203 -0.019170  0.000000      2.000000
  0.066405 -0.038339  0.000000      2.000000
  0.099608 -0.057509  0.000000      1.000000
  0.000000  0.038339  0.000000      4.000000
  0.066405 -0.000000  0.000000      4.000000
  0.099608 -0.019170  0.000000      4.000000
  0.000000  0.076678  0.000000      4.000000
  0.033203  0.057509  0.000000      2.000000
  0.099608  0.019170  0.000000      4.000000
 -0.066405  0.115017  0.000000      2.000000
  0.000000  0.115017  0.000000      2.000000
  0.033203  0.095848  0.000000      4.000000

 I would recommend the setting:
   dimension x,y,z NGX =    33 NGY =   33 NGZ =  171
 SYSTEM =  unknown system
 POSCAR =  test

 Startparameter for this run:
   NWRITE =      2    write-flag & timer
   PREC   = accura    normal or accurate (medium, high low for compatibility)
   ISTART =      0    job   : 0-new  1-cont  2-samecut
   ICHARG =      2    charge: 1-file 2-atom 10-const
   ISPIN  =      1    spin polarized calculation?
   LNONCOLLINEAR =      F non collinear calculations
   LSORBIT =      F    spin-orbit coupling
   INIWAV =      1    electr: 0-lowe 1-rand  2-diag
   LASPH  =      T    aspherical Exc in radial PAW
   METAGGA=      F    non-selfconsistent MetaGGA calc.

 Electronic Relaxation 1
   ENCUT  =  400.0 eV  29.40 Ry    5.42 a.u.   8.19  8.19 42.74*2*pi/ulx,y,z
   ENINI  =  400.0     initial cutoff
   ENAUG  =  758.2 eV  augmentation charge cutoff
   NELM   =     60;   NELMIN=  5; NELMDL= -5     # of ELM steps
   EDIFF  = 0.1E-04   stopping-criterion for ELM
   LREAL  =      F    real-space projection
   NLSPLINE    = F    spline interpolate recip. space projectors
   LCOMPAT=      F    compatible to vasp.4.4
   GGA_COMPAT  = T    GGA compatible to vasp.4.4-vasp.4.6
   LMAXPAW     = -100 max onsite density
   LMAXMIX     =    2 max onsite mixed and CHGCAR
   VOSKOWN=      0    Vosko Wilk Nusair interpolation
   ROPT   =    0.00000   0.00000
 Ionic relaxation
   EDIFFG = 0.1E-03   stopping-criterion for IOM
   NSW    =    150    number of steps for IOM
   NBLOCK =      1;   KBLOCK =    150    inner block; outer block
   IBRION =      2    ionic relax: 0-MD 1-quasi-New 2-CG
   NFREE  =      1    steps in history (QN), initial steepest desc. (CG)
   ISIF   =      2    stress and relaxation
   IWAVPR =     11    prediction:  0-non 1-charg 2-wave 3-comb
   ISYM   =      2    0-nonsym 1-usesym 2-fastsym
   LCORR  =      T    Harris-Foulkes like correction to forces

   POTIM  = 0.5000    time-step for ionic-motion
   TEIN   =    0.0    initial temperature
   TEBEG  =    0.0;   TEEND  =   0.0 temperature during run
   SMASS  =  -3.00    Nose mass-parameter (am)
   estimated Nose-frequenzy (Omega)   =  0.10E-29 period in steps =****** mass=  -0.576E-27a.u.
   SCALEE = 1.0000    scale energy and forces
   NPACO  =    256;   APACO  = 16.0  distance and # of slots for P.C.
   PSTRESS=    0.0 pullay stress

  Mass of Ions in am
   POMASS =  63.55 12.01
  Ionic Valenz
   ZVAL   =  17.00  4.00
  Atomic Wigner-Seitz radii
  virtual crystal weights
   VCA    =   1.00  1.00
   NELECT =     276.0000    total number of electrons
   NUPDOWN=      -1.0000    fix difference up-down

 DOS related values:
   EMIN   =  10.00;   EMAX   =-10.00  energy-range for DOS
   EFERMI =   0.00
   ISMEAR =     0;   SIGMA  =   0.10  broadening in eV -4-tet -1-fermi 0-gaus

 Electronic relaxation 2 (details)
   IALGO  =     38    algorithm
   LDIAG  =      T    sub-space diagonalisation (order eigenvalues)
   LSUBROT=      F    optimize rotation matrix (better conditioning)
   TURBO    =      0    0=normal 1=particle mesh
   IRESTART =      0    0=no restart 2=restart with 2 vectors
   NREBOOT  =      0    no. of reboots
   NMIN     =      0    reboot dimension
   EREF     =   0.00    reference energy to select bands
   IMIX   =      4    mixing-type and parameters
     AMIX     =   0.40;   BMIX     =  1.00
     AMIX_MAG =   1.60;   BMIX_MAG =  1.00
     AMIN     =   0.10
     WC   =   100.;   INIMIX=   1;  MIXPRE=   1;  MAXMIX= -45

 Intra band minimization:
   WEIMIN = 0.0010     energy-eigenvalue tresh-hold
   EBREAK =  0.15E-07  absolut break condition
   DEPER  =   0.30     relativ break condition

   TIME   =   0.40     timestep for ELM

  volume/ion in A,a.u.               =      33.64       227.02
  Fermi-wavevector in a.u.,A,eV,Ry     =   1.284127  2.426648 22.435767  1.648982
  Thomas-Fermi vector in A             =   2.416339

 Write flags
   LWAVE  =      F    write WAVECAR
   LCHARG =      F    write CHGCAR
   LVTOT  =      F    write LOCPOT, total local potential
   LVHAR  =      F    write LOCPOT, Hartree potential only
   LELF   =      F    write electronic localiz. function (ELF)
   LORBIT =     10    0 simple, 1 ext, 2 COOP (PROOUT)

 Dipole corrections
   LMONO  =      F    monopole corrections only (constant potential shift)
   LDIPOL =      T    correct potential (dipole corrections)
   IDIPOL =      3    1-x, 2-y, 3-z, 4-all directions
   EPSILON=  1.0000000 bulk dielectric constant

 Exchange correlation treatment:
   GGA     =    --    GGA type
   VOSKOWN=      0    Vosko Wilk Nusair interpolation
   LHFCALC =     F    Hartree Fock is set to
[...]
  Stress total and by dimension    3.905356    3.037561
 Conjugate gradient step on ions:
 trial-energy change:   -0.026327  1 .order   -0.026017   -0.042126   -0.009909
  (g-gl).g = 0.402E-01      g.g   = 0.411E-01  gl.gl    = 0.161E+00
 g(Force)  = 0.411E-01   g(Stress)= 0.000E+00 ortho     = 0.913E-03
 gamma     =   0.24967
 trial     =   1.02004
 opt step  =   1.31213  (harmonic =   1.33377) maximal distance =0.02669489
 next E    =   -68.472203   (d E  =  -0.02775)

[...]

 d Force = 0.2720429E-02[-0.583E-03, 0.602E-02]  d Energy = 0.2855142E-02-0.135E-03
 d Force =-0.1757606E+03[-0.176E+03,-0.176E+03]  d Ewald  =-0.1757608E+03 0.233E-03

[...]

 stress matrix after NEB project (eV)
     -1.45634     -0.11269     -0.04051
     -0.11269     -1.58647      0.02339
     -0.04051      0.02339     -2.37115
  FORCES: max atom, RMS     0.097155    0.052101
  FORCE total and by dimension    0.214817    0.095845
  Stress total and by dimension    3.207798    2.371154
 Conjugate gradient step on ions:
 trial-energy change:   -0.003678  1 .order   -0.003627   -0.005247   -0.002006
  (g-gl).g = 0.531E-02      g.g   = 0.481E-02  gl.gl    = 0.660E-02
 g(Force)  = 0.481E-02   g(Stress)= 0.000E+00 ortho     =-0.384E-03
 gamma     =   0.80449
 trial     =   1.16475
 opt step  =   1.79401  (harmonic =   1.88591) maximal distance =0.01041892
 next E    =   -68.485382   (d E  =  -0.00423)

[...]

 d Force = 0.1008998E-05[-0.327E-05, 0.529E-05]  d Energy = 0.3593482E-05-0.258E-05
 d Force = 0.1024716E+02[ 0.102E+02, 0.102E+02]  d Ewald  = 0.1024716E+02-0.204E-08

[...]

 stress matrix after NEB project (eV)
     -1.44632      0.01116      0.04268
      0.01116     -1.43343     -0.02464
      0.04268     -0.02464     -1.71341
  FORCES: max atom, RMS     0.025286    0.011595
  FORCE total and by dimension    0.047805    0.021795
  Stress total and by dimension    2.662224    1.713407
 Conjugate gradient step on ions:
 trial-energy change:   -0.000272  1 .order   -0.000245   -0.000424   -0.000067
  (g-gl).g = 0.161E-03      g.g   = 0.238E-03  gl.gl    = 0.405E-03
 g(Force)  = 0.238E-03   g(Stress)= 0.000E+00 ortho     = 0.250E-04
 gamma     =   0.39821
 trial     =   1.71083
 opt step  =   2.03066  (harmonic =   2.03066) maximal distance =0.00247574
 next E    =   -68.491418   (d E  =  -0.00025)

[...]

 d Force = 0.5537346E-05[-0.141E-05, 0.125E-04]  d Energy = 0.3969044E-05 0.157E-05
 d Force =-0.1818467E+02[-0.182E+02,-0.182E+02]  d Ewald  =-0.1818467E+02-0.299E-07

[...]

 stress matrix after NEB project (eV)
     -1.46538      0.00878      0.03387
      0.00878     -1.45525     -0.01956
      0.03387     -0.01956     -1.70282
  FORCES: max atom, RMS     0.017292    0.008374
  FORCE total and by dimension    0.034525    0.017292
  Stress total and by dimension    2.677295    1.702819
 Conjugate gradient step on ions:
 trial-energy change:   -0.000112  1 .order   -0.000182   -0.000270   -0.000094
  (g-gl).g = 0.172E-03      g.g   = 0.155E-03  gl.gl    = 0.238E-03
 g(Force)  = 0.155E-03   g(Stress)= 0.000E+00 ortho     =-0.442E-05
 gamma     =   0.72268
 trial     =   1.77480
 opt step  =   2.72918  (harmonic =   2.72918) maximal distance =0.00222998
 next E    =   -68.491650   (d E  =  -0.00021)

[...]

 d Force = 0.5506298E-05[-0.398E-04, 0.508E-04]  d Energy =-0.5713714E-05 0.112E-04
 d Force =-0.5614180E+02[-0.561E+02,-0.561E+02]  d Ewald  =-0.5614180E+02 0.319E-07

[...]

 stress matrix after NEB project (eV)
     -1.41683      0.01576      0.03741
      0.01576     -1.39864     -0.02160
      0.03741     -0.02160     -1.56595
  FORCES: max atom, RMS     0.011853    0.004975
  FORCE total and by dimension    0.020512    0.009814
  Stress total and by dimension    2.533775    1.565946
 Steepest descent step on ions:
 trial-energy change:   -0.000144  1 .order   -0.000084   -0.000136   -0.000033
  (g-gl).g = 0.977E-04      g.g   = 0.689E-04  gl.gl    = 0.155E-03
 g(Force)  = 0.689E-04   g(Stress)= 0.000E+00 ortho     =-0.417E-04
 gamma     =   0.00000
 trial     =   1.96567
 opt step  =   2.09753  (harmonic =   2.58848) maximal distance =0.00179510
 next E    =   -68.491693   (d E  =  -0.00015)

 FEWALD executed in parallel

[...]

 eigenvalue-minimisations  :  2656
 total energy-change (2. order) : 0.3915338E-05  (-0.2192689E-05)
 number of electron     275.9999397 magnetization
 augmentation part      173.6586668 magnetization

[...]

 Broyden mixing:
  rms(total) = 0.39360E-03    rms(broyden)= 0.39238E-03
  rms(prec ) = 0.40845E-03
  weight for this iteration     100.00

 eigenvalues of (default mixing * dielectric matrix)
  average eigenvalue GAMMA=   0.5415
  0.7241  0.7241  0.1764

[...]

----------------------------------------- Iteration   21(   5)  ---------------------------------------

 eigenvalue-minimisations  :  2648
 total energy-change (2. order) :-0.4203757E-06  (-0.1611866E-06)
 number of electron     275.9999397 magnetization
 augmentation part      173.6586668 magnetization

 DIPCOR: dipole corrections for dipol
 direction  3 min pos   233,
 dipolmoment           0.000000      0.000000      0.103088 electrons x Angstroem
 Tr[quadrupol]     -1342.507612

 energy correction for charged system         0.000000 eV
 dipol+quadrupol energy correction           -0.001681 eV
 added-field ion interaction          5.680767 eV  (added to PSCEN)

 Free energy of the ion-electron system (eV)
  alpha Z        PSCENC =       837.51507626
  Ewald energy   TEWEN  =    284339.17815261
  -Hartree energ DENC   =   -342968.01402358
  -exchange      EXHF   =         0.00000000
  -V(xc)+E(xc)   XCENC  =      1723.30498239
  PAW double counting   =     58085.51799242   -60555.79069792
  entropy T*S    EENTRO =        -0.04842684
  eigenvalues    EBANDS =     -7591.53068798
  atomic energy  EATOM  =     66067.45489428
  free energy    TOTEN  =       -62.41273834 eV

  energy without entropy =      -62.36431151  energy(sigma->0) =      -62.38852492

 average (electrostatic) potential at core
  the test charge radii are     0.8297  0.6991
  (the norm of the test charge is              1.0000)
       1 -87.4191       2 -87.4191       3 -87.4192       4 -87.4309       5 -87.6794
       6 -87.7142       7 -87.7142       8 -87.7142       9 -87.6341      10 -87.6341
      11 -87.6346      12 -87.6821      13 -88.1880      14 -88.1880      15 -88.1870
      16 -87.1923      17 -56.3825

 E-fermi :  -1.0344     XC(G=0):  -5.1000     alpha+bet : -4.3413

[...]

 k-point    13 :       0.1667    0.5000    0.0000
  band No.  band energies     occupation
      1     -71.8850      2.00000
      2     -71.8618      2.00000
      3     -71.8430      2.00000
      4     -71.5432      2.00000
      5     -71.5350      2.00000
      6     -71.5226      2.00000
      7     -71.5179      2.00000
      8     -71.5059      2.00000
      9     -71.4955      2.00000
     10     -71.2076      2.00000
     11     -71.1924      2.00000
     12     -71.1886      2.00000
     13     -71.1827      2.00000
     14     -71.1792      2.00000
     15     -71.1770      2.00000
     16     -71.1698      2.00000
     17     -71.1574      2.00000
     18     -71.1507      2.00000
     19     -71.1415      2.00000
     20     -71.1337      2.00000
     21     -71.1326      2.00000
     22     -71.1284      2.00000
     23     -71.1194      2.00000
     24     -71.1188      2.00000
     25     -71.1128      2.00000
     26     -71.0985      2.00000
     27     -71.0846      2.00000
     28     -71.0828      2.00000
     29     -71.0793      2.00000
     30     -71.0740      2.00000
     31     -71.0691      2.00000
     32     -71.0619      2.00000
     33     -71.0537      2.00000
     34     -70.9388      2.00000
     35     -70.9276      2.00000
     36     -70.9174      2.00000
     37     -70.9078      2.00000
     38     -70.8933      2.00000
     39     -70.8829      2.00000
     40     -70.8750      2.00000
     41     -70.8615      2.00000
     42     -70.8297      2.00000
     43     -70.8244      2.00000
     44     -70.8220      2.00000
     45     -70.8197      2.00000
     46     -70.6915      2.00000
     47     -70.6902      2.00000
     48     -70.5711      2.00000
     49     -12.1772      2.00000
     50      -8.7968      2.00000
     51      -7.7613      2.00000
     52      -7.5489      2.00000
     53      -6.8802      2.00000
     54      -6.7374      2.00000
     55      -6.3212      2.00000
     56      -6.1653      2.00000
     57      -5.9087      2.00000
     58      -5.7759      2.00000
     59      -5.6666      2.00000
     60      -5.5959      2.00000
[...]
    154       5.4271      0.00000
    155       5.5182      0.00000
    156       5.8660      0.00000
    157       6.0222      0.00000
    158       6.2463      0.00000
    159       6.4268      0.00000
    160       6.6291      0.00000
    161       6.8381      0.00000
    162       7.1752      0.00000
    163       7.3423      0.00000
    164       7.3903      0.00000
    165       7.5035      0.00000
    166       7.5808      0.00000
    167       7.7605      0.00000
    168       8.0980      0.00000

 soft charge-density along one line, spin component           1
         0         1         2         3         4         5         6         7         8         9
 total charge-density along one line

------------------------ aborting loop because EDIFF is reached ----------------------------------------

[...]

         DFTD3 V3.0 Rev 1
 Edisp (eV)   -6.07895

 E6    (eV) :    -2.3895
 E8    (eV) :    -3.6895
 % E8        : 60.69

  FORCE on cell =-STRESS in cart. coord.  units (eV):
  Direction    XX          YY          ZZ          XY          YZ          ZX
  Alpha Z   831.83599   831.83599   831.83599
  Ewald  312958.49480312960.57917************     1.80507    -1.20489     2.08689
  Hartree329788.90736329790.27901************     1.18787    -0.70838     1.22694
  E(xc)   -2152.53233 -2152.53095 -2154.99233     0.00094    -0.00089     0.00155
  Local  ************************654484.93466    -2.96315     1.88253    -3.26057
  n-local -1400.98767 -1399.86868 -1404.13302    -0.31341    -0.23538    -0.12620
  augment  3003.30310  3003.30164  3010.50665    -0.01412     0.00974    -0.01681
  Kinetic  3415.19660  3412.86049  3425.67289     0.66886     0.65684     0.36841
  Fock        0.00000     0.00000     0.00000     0.00000     0.00000     0.00000
  vdW        -7.74476    -7.74862    -4.42283    -0.00334    -0.00051     0.00089
  Total      -1.42246    -1.40385    -1.58248     0.01612    -0.02180     0.03775
  in kB      -3.98513    -3.93298    -4.43342     0.04516    -0.06107     0.10577

 VOLUME and BASIS-vectors are now :
  energy-cutoff  :      400.00
  volume of cell :      571.89
      direct lattice vectors                 reciprocal lattice vectors
     5.019694805  0.000000000  0.000000000     0.199215299 -0.115017006  0.000000000
     2.509847403  4.347183220  0.000000000     0.000000000  0.230034013  0.000000000
     0.000000000  0.000000000 26.207422256     0.000000000  0.000000000  0.038157129

  length of vectors
     5.019694805  5.019694805 26.207422256     0.230034013  0.230034013  0.038157129

 FORCES acting on ions
    electron-ion (+dipol)            ewald-force                    non-local-force                 convergence-correction
   0.559E+00 0.326E+00 0.994E+04   0.156E+00 0.874E-01 -.994E+04   -.665E+00 -.384E+00 -.246E+01   0.392E-04 0.551E-04 0.159E-01
   -.221E-02 -.647E+00 0.994E+04   0.243E-02 -.179E+00 -.994E+04   -.293E-03 0.768E+00 -.246E+01   -.281E-04 -.615E-04 0.159E-01
   -.560E+00 0.324E+00 0.994E+04   -.157E+00 0.907E-01 -.994E+04   0.667E+00 -.385E+00 -.247E+01   -.443E-04 0.256E-04 0.158E-01
   0.523E-02 -.296E-02 0.994E+04   -.315E-02 0.182E-02 -.994E+04   -.210E-02 0.121E-02 -.263E+01   0.249E-04 -.144E-04 0.162E-01
   0.118E+00 -.684E-01 0.343E+04   -.119E+00 0.688E-01 -.343E+04   -.169E-02 0.977E-03 -.162E+01   -.268E-03 0.155E-03 0.452E-01
   -.587E+00 0.339E+00 0.344E+04   0.543E+00 -.314E+00 -.344E+04   0.679E-01 -.392E-01 -.761E+00   -.269E-03 0.155E-03 0.452E-01
   0.163E+00 -.931E+00 0.344E+04   -.164E+00 0.891E+00 -.344E+04   -.209E-02 0.714E-01 -.755E+00   0.247E-03 -.186E-03 0.448E-01
   0.888E+00 0.324E+00 0.344E+04   -.854E+00 -.304E+00 -.344E+04   -.629E-01 -.339E-01 -.755E+00   0.285E-03 -.121E-03 0.448E-01
   0.308E+01 0.174E+01 -.310E+04   -.233E+01 -.131E+01 0.310E+04   -.748E+00 -.428E+00 0.196E+01   -.102E-02 -.104E-02 0.484E-01
   0.336E-01 -.353E+01 -.310E+04   -.313E-01 0.267E+01 0.310E+04   -.318E-02 0.861E+00 0.196E+01   0.388E-03 0.141E-02 0.484E-01
   -.302E+01 0.174E+01 -.310E+04   0.228E+01 -.132E+01 0.310E+04   0.744E+00 -.430E+00 0.195E+01   -.207E-02 0.119E-02 0.506E-01
   -.393E+00 0.226E+00 -.305E+04   0.390E+00 -.225E+00 0.305E+04   0.373E-02 -.215E-02 -.163E+01   0.807E-03 -.466E-03 0.438E-01
   0.506E+02 0.285E+02 -.950E+04   -.511E+02 -.287E+02 0.951E+04   0.461E+00 0.267E+00 -.211E+01   0.850E-02 0.507E-02 0.299E-01
   0.654E+00 -.581E+02 -.950E+04   -.652E+00 0.586E+02 0.951E+04   -.320E-03 -.533E+00 -.211E+01   -.143E-03 -.990E-02 0.299E-01
   -.499E+02 0.288E+02 -.950E+04   0.504E+02 -.291E+02 0.950E+04   -.466E+00 0.269E+00 -.211E+01   -.562E-02 0.325E-02 0.279E-01
   -.147E+01 0.846E+00 -.973E+04   0.147E+01 -.846E+00 0.972E+04   0.203E-02 -.117E-02 0.524E+01   0.137E-02 -.795E-03 0.195E-01
   -.177E+00 0.102E+00 -.290E+04   0.180E+00 -.104E+00 0.291E+04   0.277E-02 -.160E-02 -.778E+01   0.129E-03 -.745E-04 0.125E-02
   -.917E-02 0.458E-02 0.180E+02   -.285E-12 0.283E-13 -.318E-11   -.189E-02 0.109E-02 -.185E+02   0.232E-02 -.134E-02 0.544E+00

 POSITION                                       TOTAL-FORCE (eV/Angst)
      0.00000      0.00000      0.00000         0.051073      0.029061     -0.128153
      1.25492      2.17359      0.00000         0.000369     -0.058761     -0.128153
      2.50985      0.00000      0.00000        -0.049836      0.028773     -0.127948
      3.76477      2.17359      0.00000         0.000479     -0.000276     -0.219010
      1.25492      0.72453      2.04928        -0.002176      0.001256      0.121765
      2.50985      2.89812      2.04928         0.023914     -0.013807      0.166181
      3.76477      0.72453      2.04928        -0.002221      0.030932      0.165284
      5.01969      2.89812      2.04928        -0.027899     -0.013543      0.165284
      2.51100      1.45303      4.11084        -0.000707     -0.000482     -0.006662
      3.76191      3.61967      4.11084         0.000064      0.000854     -0.006662
      5.01288      1.45299      4.11064         0.001003     -0.000579     -0.005759
      6.27165      3.62437      4.10732         0.002129     -0.001229     -0.002191
      4.98268     -0.01595      6.20245        -0.006206     -0.004979     -0.001606
      6.26993      2.21362      6.20245         0.001209      0.007864     -0.001606
      5.04910      4.33021      6.20205        -0.000924      0.000533      0.004079
      3.75882      2.17703      6.25524         0.003014     -0.001740     -0.003601
      1.25109      0.72674      7.29071         0.006715     -0.003877      0.008757
    total drift:                               -0.008744      0.004328     -0.026860

  FREE ENERGIE OF THE ION-ELECTRON SYSTEM (eV)
  free  energy   TOTEN  =       -68.49169333 eV

  energy  without entropy=      -68.44326650  energy(sigma->0) =      -68.46747992

 d Force = 0.1438296E-05[ 0.689E-06, 0.219E-05]  d Energy = 0.9700536E-06 0.468E-06
 d Force =-0.1437428E+01[-0.144E+01,-0.144E+01]  d Ewald  =-0.1437428E+01 0.582E-10

 stress matrix after NEB project (eV)
     -1.42246      0.01612      0.03775
      0.01612     -1.40385     -0.02180
      0.03775     -0.02180     -1.58248
  FORCES: max atom, RMS     0.011696    0.005128
  FORCE total and by dimension    0.021143    0.008757
  Stress total and by dimension    2.550050    1.582478

 reached required accuracy - stopping structural energy minimisation

 total charge

# of ion     s       p       d       tot
  1        0.310   6.159   8.881  15.350
  2        0.314   6.161   8.868  15.343
  3        0.312   6.160   8.875  15.347
  4        0.312   6.159   8.875  15.347
  5        0.302   6.208   8.867  15.377
  6        0.302   6.208   8.867  15.376
  7        0.300   6.209   8.861  15.371
  8        0.303   6.206   8.872  15.381
  9        0.300   6.204   8.861  15.365
 10        0.298   6.203   8.874  15.375
 11        0.299   6.204   8.867  15.370
 12        0.313   6.209   8.859  15.381
 13        0.343   6.243   8.825  15.411
 14        0.341   6.242   8.795  15.377
 15        0.342   6.242   8.810  15.394
 16        0.270   6.150   8.915  15.335
 17        0.958   1.295   0.000   2.254
tot        5.918 100.462 141.773 248.153