 vasp.5.3.5 31Mar14 (build Aug  4 2014 13:16:38) complex

 executed on     GRPO3GRAPHENEAVX date 2017.07.29  15:51:20

 INCAR:
 POTCAR:    PAW_PBE Cu_pv 06Sep2000
 POTCAR:    PAW_PBE C 08Apr2002

 POTCAR:    PAW_PBE Cu_pv 06Sep2000
   VRHFIN =Cu: d10 p1

   TITEL  = PAW_PBE Cu_pv 06Sep2000
   POMASS =   63.546; ZVAL   =   17.000    mass and valenz
   ENMAX  =  368.648; ENMIN  =  276.486 eV

 POTCAR:    PAW_PBE C 08Apr2002
   VRHFIN =C: s2p2

   TITEL  = PAW_PBE C 08Apr2002
   POMASS =   12.011; ZVAL   =    4.000    mass and valenz
   ENMAX  =  400.000; ENMIN  =  300.000 eV

  PAW_PBE Cu_pv 06Sep2000               :
  PAW_PBE C 08Apr2002                   :

 POSCAR: test
  positions in cartesian coordinates
 exchange correlation table for  LEXCH =        8
   RHO(1)=    0.500       N(1)  =     2000
   RHO(2)=  100.500       N(2)  =     4000

 ion  position               nearest neighbor table
   1  0.000  0.000  0.000-  12 2.51  16 2.51   6 2.51   8 2.51   2 2.51   3 2.51   7 2.51   4 2.51
                            10 2.51
   2  0.000  0.333  0.000-   3 2.51   9 2.51  10 2.51  11 2.51  17 2.51   1 2.51   4 2.51   5 2.51
                             8 2.51
   3  0.000  0.667  0.000-   2 2.51   5 2.51  11 2.51  18 2.51   1 2.51   7 2.51   6 2.51   9 2.51
                            12 2.51
   4  0.333  0.000  0.000-   7 2.51   9 2.51  10 2.51  13 2.51  15 2.51   6 2.51   2 2.51   5 2.51
                             1 2.51
   5  0.333  0.333  0.000-   6 2.51   8 2.51  14 2.51   3 2.51   7 2.51  13 2.51  11 2.51   4 2.51
                             2 2.51
   6  0.333  0.667  0.000-   5 2.51   8 2.51   9 2.51  12 2.51  14 2.51  15 2.51   1 2.51   4 2.51
                             3 2.51
   7  0.667  0.000  0.000-   4 2.51   5 2.51  13 2.51  18 2.51   9 2.51   3 2.51   8 2.51   1 2.51
                            16 2.51
   8  0.667  0.333  0.000-   6 2.51   9 2.51   5 2.51  14 2.51  16 2.51  17 2.51   1 2.51   7 2.51
                             2 2.51
   9  0.667  0.667  0.000-   8 2.51   6 2.51   2 2.51   4 2.51  15 2.51  17 2.51   7 2.51   3 2.51
                            18 2.51
  10  0.111  0.111  0.078-  11 2.51  13 2.51  15 2.51  17 2.51   2 2.51   4 2.51  12 2.51  16 2.51
                             1 2.51  19 2.52  21 2.52  25 2.52
  11  0.111  0.444  0.078-  26 2.51  13 2.51  10 2.51  14 2.51   3 2.51   5 2.51   2 2.51  18 2.51
                            12 2.51  17 2.51  20 2.52  19 2.53
  12  0.111  0.778  0.078-  27 2.51  15 2.51  14 2.51   6 2.51   1 2.51  11 2.51  16 2.51  10 2.51
                            18 2.51   3 2.51  20 2.52  21 2.53
  13  0.444  0.111  0.078-  24 2.51  14 2.51  11 2.51  10 2.51   5 2.51   7 2.51   4 2.51  18 2.51
                            15 2.51  16 2.51  22 2.52  19 2.53
  14  0.444  0.444  0.078-  13 2.51  11 2.51   5 2.51  12 2.51  16 2.51   6 2.51   8 2.51  15 2.51
                            17 2.51  20 2.52  22 2.52  23 2.52
  15  0.444  0.778  0.078-  24 2.51  12 2.51  10 2.51   4 2.51   6 2.51   9 2.51  14 2.51  17 2.51
                            13 2.51  18 2.51  23 2.52  21 2.53
  16  0.778  0.111  0.078-  27 2.51  17 2.51  14 2.51   8 2.51   1 2.51  18 2.51  12 2.51  10 2.51
                            13 2.51   7 2.51  22 2.52  25 2.53
  17  0.778  0.444  0.078-  26 2.51  16 2.51  10 2.51   2 2.51   8 2.51   9 2.51  18 2.51  15 2.51
                            11 2.51  14 2.51  23 2.52  25 2.53
  18  0.778  0.778  0.078-   3 2.51   7 2.51  11 2.51  13 2.51  16 2.51  17 2.51  12 2.51  15 2.51
                             9 2.51  27 2.51  26 2.51  24 2.51
  19  0.222  0.222  0.157-  21 2.50  25 2.50  24 2.51  26 2.51  20 2.52  22 2.52  10 2.52  11 2.53
                            13 2.53
  20  0.222  0.556  0.157-  27 2.51  26 2.51  22 2.51  23 2.51  30 2.51  11 2.52  12 2.52  14 2.52
                            19 2.52  21 2.52  32 2.53  33 2.53
  21  0.222  0.890  0.157-  19 2.50  25 2.50  24 2.51  27 2.51  23 2.52  20 2.52  10 2.52  12 2.53
                            15 2.53
  22  0.556  0.222  0.157-  27 2.51  24 2.51  20 2.51  23 2.51  34 2.51  13 2.52  16 2.52  14 2.52
                            25 2.52  19 2.52  32 2.53  35 2.53
  23  0.556  0.556  0.157-  24 2.51  26 2.51  20 2.51  22 2.51  36 2.51  17 2.52  15 2.52  14 2.52
                            25 2.52  21 2.52  35 2.53  33 2.53
  24  0.555  0.889  0.156-  21 2.51  19 2.51  15 2.51  13 2.51  23 2.51  22 2.51  18 2.51  36 2.52
                            34 2.52  26 2.52  27 2.52
  25  0.890  0.222  0.157-  21 2.50  19 2.50  26 2.51  27 2.51  22 2.52  23 2.52  10 2.52  16 2.53
                            17 2.53
  26  0.889  0.555  0.156-  25 2.51  19 2.51  17 2.51  11 2.51  23 2.51  20 2.51  18 2.51  36 2.52
                            30 2.52  24 2.52  27 2.52
  27  0.889  0.889  0.156-  25 2.51  21 2.51  12 2.51  16 2.51  20 2.51  22 2.51  18 2.51  30 2.52
                            34 2.52  26 2.52  24 2.52
  28  0.995  0.995  0.238-  37 1.85  30 2.45  34 2.45  35 2.52  33 2.52
  29  0.995  0.343  0.238-  37 1.85  36 2.45  30 2.45  32 2.52  35 2.52
  30  0.999  0.667  0.235-  28 2.45  29 2.45  34 2.50  36 2.50  20 2.51  32 2.51  33 2.51  27 2.52
                            26 2.52
  31  0.343  0.995  0.238-  37 1.85  36 2.45  34 2.45  32 2.52  33 2.52
  32  0.334  0.334  0.236-  33 2.49  35 2.49  34 2.51  30 2.51  31 2.52  29 2.52  20 2.53  22 2.53

  33  0.334  0.665  0.236-  32 2.49  35 2.49  30 2.51  36 2.51  31 2.52  28 2.52  23 2.53  20 2.53

  34  0.667  0.999  0.235-  28 2.45  31 2.45  30 2.50  36 2.50  22 2.51  35 2.51  32 2.51  27 2.52
                            24 2.52
  35  0.665  0.334  0.236-  32 2.49  33 2.49  34 2.51  36 2.51  28 2.52  29 2.52  23 2.53  22 2.53

  36  0.667  0.667  0.235-  29 2.45  31 2.45  34 2.50  30 2.50  23 2.51  35 2.51  33 2.51  24 2.52
                            26 2.52
  37  0.111  0.111  0.279-  28 1.85  31 1.85  29 1.85
  38  0.444  0.444  0.328-

  LATTYP: Found a hexagonal cell.
 ALAT       =     7.5295418705
 C/A-ratio  =     3.4806131976

  Lattice vectors:

 A1 = (   3.7647709353,  -6.5207745387,   0.0000000000)
 A2 = (  -7.5295418705,   0.0000000000,   0.0000000000)
 A3 = (   0.0000000000,   0.0000000000, -26.2074228060)

Analysis of symmetry for initial positions (statically):
 Subroutine PRICEL returns:
 Original cell was already a primitive cell.

 Routine SETGRP: Setting up the symmetry group for a
 hexagonal supercell.

 Subroutine GETGRP returns: Found  6 space group operations
 (whereof  2 operations were pure point group operations)
 out of a pool of 24 trial point group operations.

The static configuration has the point symmetry C_1h.
 The point group associated with its full space group is C_3v.

Analysis of symmetry for dynamics (positions and initial velocities):
 Subroutine PRICEL returns:
 Original cell was already a primitive cell.

[...]

The dynamic configuration has the point symmetry C_1h.
 The point group associated with its full space group is C_3v.

Analysis of constrained symmetry for selective dynamics:
 Subroutine PRICEL returns:
 Original cell was already a primitive cell.

 Routine SETGRP: Setting up the symmetry group for a
 hexagonal supercell.

 Subroutine GETGRP returns: Found  6 space group operations
 (whereof  2 operations were pure point group operations)
 out of a pool of 24 trial point group operations.

The constrained configuration has the point symmetry C_1h.
 The point group associated with its full space group is C_3v.

 KPOINTS: A

Automatic generation of k-mesh.
Space group operators:
 irot       det(A)        alpha          n_x          n_y          n_z        tau_x        tau_y        tau_z
    1     1.000000     0.000000     1.000000     0.000000     0.000000     0.000000     0.000000     0.000000
    2    -1.000000   180.000000     0.500000    -0.866025     0.000000     0.000000     0.000000     0.000000
    3     1.000000   120.000000     0.000000     0.000000     1.000000     0.000000    -0.666667     0.000000
    4     1.000000   120.000000     0.000000     0.000000    -1.000000    -0.666667     0.000000     0.000000
    5    -1.000000   179.999999     1.000000     0.000000     0.000000    -0.666667     0.000000     0.000000
    6    -1.000000   180.000000    -0.500000    -0.866025     0.000000     0.000000    -0.666667     0.000000

 Subroutine IBZKPT returns following result:

 Found      4 irreducible k-points:

 Following reciprocal coordinates:
            Coordinates               Weight
  0.000000  0.000000  0.000000      1.000000
  0.250000  0.000000  0.000000      6.000000
  0.500000  0.000000  0.000000      3.000000
  0.500000  0.250000  0.000000      6.000000

 Following cartesian coordinates:
            Coordinates               Weight
  0.000000  0.000000  0.000000      1.000000
  0.033203 -0.019170  0.000000      6.000000
  0.066405 -0.038339  0.000000      3.000000
  0.066405  0.000000  0.000000      6.000000

 I would recommend the setting:
   dimension x,y,z NGX =    49 NGY =   49 NGZ =  171
 SYSTEM =  unknown system
 POSCAR =  test

 Startparameter for this run:
   NWRITE =      2    write-flag & timer
   PREC   = accura    normal or accurate (medium, high low for compatibility)
   ISTART =      0    job   : 0-new  1-cont  2-samecut
   ICHARG =      2    charge: 1-file 2-atom 10-const
   ISPIN  =      1    spin polarized calculation?
   LNONCOLLINEAR =      F non collinear calculations
   LSORBIT =      F    spin-orbit coupling
   INIWAV =      1    electr: 0-lowe 1-rand  2-diag
   LASPH  =      T    aspherical Exc in radial PAW
   METAGGA=      F    non-selfconsistent MetaGGA calc.

 Electronic Relaxation 1
   ENCUT  =  400.0 eV  29.40 Ry    5.42 a.u.  12.28 12.28 42.74*2*pi/ulx,y,z
   ENINI  =  400.0     initial cutoff
   ENAUG  =  758.2 eV  augmentation charge cutoff
   NELM   =     60;   NELMIN=  5; NELMDL= -5     # of ELM steps
   EDIFF  = 0.1E-04   stopping-criterion for ELM
   LREAL  =      F    real-space projection
   NLSPLINE    = F    spline interpolate recip. space projectors
   LCOMPAT=      F    compatible to vasp.4.4
   GGA_COMPAT  = T    GGA compatible to vasp.4.4-vasp.4.6
   LMAXPAW     = -100 max onsite density
   LMAXMIX     =    2 max onsite mixed and CHGCAR
   VOSKOWN=      0    Vosko Wilk Nusair interpolation
   ROPT   =    0.00000   0.00000
 Ionic relaxation
   EDIFFG = 0.1E-03   stopping-criterion for IOM
   NSW    =    150    number of steps for IOM
   NBLOCK =      1;   KBLOCK =    150    inner block; outer block
   IBRION =      2    ionic relax: 0-MD 1-quasi-New 2-CG
   NFREE  =      1    steps in history (QN), initial steepest desc. (CG)
   ISIF   =      2    stress and relaxation
   IWAVPR =     11    prediction:  0-non 1-charg 2-wave 3-comb
   ISYM   =      2    0-nonsym 1-usesym 2-fastsym
   LCORR  =      T    Harris-Foulkes like correction to forces

   POTIM  = 0.5000    time-step for ionic-motion
   TEIN   =    0.0    initial temperature
   TEBEG  =    0.0;   TEEND  =   0.0 temperature during run
   SMASS  =  -3.00    Nose mass-parameter (am)
   estimated Nose-frequenzy (Omega)   =  0.10E-29 period in steps =****** mass=  -0.130E-26a.u.
   SCALEE = 1.0000    scale energy and forces
[...]
  alpha Z        PSCENC =      1857.24833103
  Ewald energy   TEWEN  =    638000.84366125
  -Hartree energ DENC   =   -769894.92383096
  -exchange      EXHF   =         0.00000000
  -V(xc)+E(xc)   XCENC  =      3874.12326281
  PAW double counting   =    130575.07012523  -136132.24162420
  entropy T*S    EENTRO =        -0.08466669
  eigenvalues    EBANDS =    -17033.88182506
  atomic energy  EATOM  =    148614.99170617
  free energy    TOTEN  =      -138.85486041 eV

  energy without entropy =     -138.77019372  energy(sigma->0) =     -138.81252707

 average (electrostatic) potential at core
  the test charge radii are     0.8297  0.6991
  (the norm of the test charge is              1.0000)
       1 -87.3676       2 -87.3675       3 -87.3712       4 -87.3675       5 -87.3713
       6 -87.3714       7 -87.3712       8 -87.3714       9 -87.3711      10 -87.6389
      11 -87.6602      12 -87.6603      13 -87.6602      14 -87.6416      15 -87.6602
      16 -87.6603      17 -87.6602      18 -87.6578      19 -87.5741      20 -87.5348
      21 -87.5742      22 -87.5348      23 -87.5348      24 -87.6157      25 -87.5742
      26 -87.6157      27 -87.6157      28 -88.1464      29 -88.1464      30 -87.3154
      31 -88.1464      32 -88.1010      33 -88.1009      34 -87.3154      35 -88.1009
      36 -87.3154      37 -56.3829      38 -56.3224

 E-fermi :  -1.0294     XC(G=0):  -5.0846     alpha+bet : -4.3567

[...]

 k-point     4 :       0.5000    0.2500    0.0000
  band No.  band energies     occupation
      1     -71.8200      2.00000
      2     -71.7991      2.00000
      3     -71.7983      2.00000
      4     -71.7949      2.00000
      5     -71.7750      2.00000
      6     -71.7727      2.00000
      7     -71.5131      2.00000
      8     -71.5127      2.00000
      9     -71.5121      2.00000
     10     -71.4774      2.00000
     11     -71.4712      2.00000
     12     -71.4665      2.00000
     13     -71.4658      2.00000
     14     -71.4638      2.00000
     15     -71.4578      2.00000
     16     -71.3984      2.00000
     17     -71.3901      2.00000
     18     -71.3883      2.00000
     19     -71.1684      2.00000
     20     -71.1662      2.00000
     21     -71.1626      2.00000
     22     -71.1525      2.00000
     23     -71.1475      2.00000
     24     -71.1450      2.00000
     25     -71.1331      2.00000
     26     -71.1218      2.00000
     27     -71.1184      2.00000
     28     -71.1177      2.00000
     29     -71.1161      2.00000
     30     -71.1149      2.00000
     31     -71.1112      2.00000
     32     -71.1107      2.00000
     33     -71.1097      2.00000
     34     -71.1082      2.00000
     35     -71.1077      2.00000
     36     -71.1000      2.00000
     37     -71.0992      2.00000
     38     -71.0950      2.00000
     39     -71.0941      2.00000
     40     -71.0896      2.00000
     41     -71.0884      2.00000
     42     -71.0863      2.00000
     43     -71.0833      2.00000
     44     -71.0817      2.00000
     45     -71.0797      2.00000
     46     -71.0773      2.00000
     47     -71.0767      2.00000
     48     -71.0738      2.00000
     49     -71.0718      2.00000
     50     -71.0712      2.00000
     51     -71.0705      2.00000
     52     -71.0540      2.00000
     53     -71.0498      2.00000
     54     -71.0473      2.00000
     55     -71.0390      2.00000
     56     -71.0289      2.00000
     57     -71.0287      2.00000
     58     -71.0274      2.00000
     59     -71.0252      2.00000
     60     -71.0176      2.00000
[...]
    358       6.3504      0.00000
    359       6.5760      0.00000
    360       6.6172      0.00000
    361       6.6852      0.00000
    362       6.7360      0.00000
    363       6.8809      0.00000
    364       7.0162      0.00000
    365       7.1896      0.00000
    366       7.2150      0.00000
    367       7.3353      0.00000
    368       7.4148      0.00000
    369       7.5182      0.00000
    370       7.5565      0.00000
    371       7.6348      0.00000
    372       7.7106      0.00000

 soft charge-density along one line, spin component           1
         0         1         2         3         4         5         6         7         8         9
 total charge-density along one line

------------------------ aborting loop because EDIFF is reached ----------------------------------------

[...]

         DFTD3 V3.0 Rev 1
 Edisp (eV)  -13.61733

 E6    (eV) :    -5.3510
 E8    (eV) :    -8.2663
 % E8        : 60.70

  FORCE on cell =-STRESS in cart. coord.  units (eV):
  Direction    XX          YY          ZZ          XY          YZ          ZX
  Alpha Z  1866.14338  1866.14338  1866.14338
  Ewald  702349.19714702349.19714************     0.00000     0.00000     0.00000
  Hartree740222.89093740222.89066************     0.00023    -0.00007    -0.00012
  E(xc)   -4839.62275 -4839.62239 -4845.30280    -0.00031     0.00001     0.00001
  Local  ************************************     0.02487     0.00010     0.00018
  n-local -3156.36537 -3149.46065 -3161.69974     2.78429    -0.28048     0.06119
  augment  6754.54571  6754.57218  6777.13625    -0.02292     0.00055     0.00095
  Kinetic  7662.79871  7667.52909  7698.10303     0.92807     3.12241    -1.42520
  Fock        0.00000     0.00000     0.00000     0.00000     0.00000     0.00000
  vdW       -17.37056   -17.37056    -9.90021     0.00000     0.00000     0.00000
  Total      -4.24620    -4.24620    -3.40743     0.00000     0.00000     0.00000
  in kB      -5.28712    -5.28712    -4.24273     0.00000     0.00000     0.00000

 VOLUME and BASIS-vectors are now :
  energy-cutoff  :      400.00
  volume of cell :     1286.74
      direct lattice vectors                 reciprocal lattice vectors
     7.529541871  0.000000000  0.000000000     0.132810205 -0.076678008  0.000000000
     3.764770935  6.520774539  0.000000000     0.000000000  0.153356015  0.000000000
     0.000000000  0.000000000 26.207422806     0.000000000  0.000000000  0.038157129

  length of vectors
     7.529541871  7.529541871 26.207422806     0.153356015  0.153356015  0.038157129

 FORCES acting on ions
    electron-ion (+dipol)            ewald-force                    non-local-force                 convergence-correction
   0.470E+00 0.271E+00 0.993E+04   0.301E-01 0.174E-01 -.992E+04   -.466E+00 -.269E+00 -.227E+01   -.650E-05 -.375E-05 0.252E-02
   0.279E-03 -.542E+00 0.993E+04   0.439E-11 -.348E-01 -.992E+04   0.139E-16 0.538E+00 -.227E+01   0.176E-06 0.728E-05 0.252E-02
   -.178E+01 0.103E+01 0.993E+04   0.144E+01 -.832E+00 -.992E+04   0.303E+00 -.175E+00 -.218E+01   -.138E-03 0.793E-04 0.253E-02
   -.470E+00 0.271E+00 0.993E+04   -.301E-01 0.174E-01 -.992E+04   0.466E+00 -.269E+00 -.227E+01   0.639E-05 -.349E-05 0.252E-02
   -.110E+01 -.636E+00 0.992E+04   0.127E+01 0.733E+00 -.992E+04   -.155E+00 -.895E-01 -.234E+01   0.885E-04 0.511E-04 0.231E-02
   0.270E-03 0.127E+01 0.992E+04   -.152E-09 -.147E+01 -.992E+04   0.121E-16 0.179E+00 -.234E+01   0.140E-06 -.103E-03 0.231E-02
   -.543E-03 -.205E+01 0.993E+04   0.146E-09 0.166E+01 -.992E+04   0.208E-16 0.350E+00 -.218E+01   -.989E-07 -.159E-03 0.253E-02
   0.110E+01 -.635E+00 0.992E+04   -.127E+01 0.733E+00 -.992E+04   0.155E+00 -.895E-01 -.234E+01   -.887E-04 0.514E-04 0.231E-02
   0.178E+01 0.103E+01 0.993E+04   -.144E+01 -.832E+00 -.992E+04   -.303E+00 -.175E+00 -.218E+01   0.138E-03 0.795E-04 0.253E-02
   0.387E-03 0.223E-03 0.342E+04   0.123E-09 0.700E-09 -.342E+04   -.434E-17 0.000E+00 -.221E+01   0.262E-06 0.151E-06 0.708E-02
   -.128E+02 -.568E+00 0.341E+04   0.129E+02 0.682E+00 -.341E+04   -.119E-01 -.906E-01 -.861E+00   -.388E-02 0.175E-02 0.908E-03
   -.593E+01 0.114E+02 0.341E+04   0.585E+01 -.115E+02 -.341E+04   0.725E-01 0.556E-01 -.861E+00   -.346E-02 0.248E-02 0.908E-03
   -.691E+01 -.108E+02 0.341E+04   0.703E+01 0.108E+02 -.341E+04   -.844E-01 0.350E-01 -.861E+00   -.419E-03 -.423E-02 0.908E-03
   0.611E-04 0.353E-04 0.340E+04   -.186E-10 -.324E-09 -.340E+04   -.103E-17 0.266E-17 -.169E+01   -.467E-06 -.270E-06 -.100E-01
   0.593E+01 0.114E+02 0.341E+04   -.585E+01 -.115E+02 -.341E+04   -.725E-01 0.556E-01 -.861E+00   0.346E-02 0.248E-02 0.908E-03
   0.691E+01 -.108E+02 0.341E+04   -.703E+01 0.108E+02 -.341E+04   0.844E-01 0.350E-01 -.861E+00   0.419E-03 -.423E-02 0.908E-03
   0.128E+02 -.568E+00 0.341E+04   -.129E+02 0.682E+00 -.341E+04   0.119E-01 -.906E-01 -.861E+00   0.388E-02 0.175E-02 0.908E-03
   -.113E-03 -.653E-04 0.343E+04   -.460E-10 -.302E-09 -.343E+04   0.000E+00 0.347E-17 -.164E+01   0.170E-06 0.981E-07 0.378E-02
   -.131E+02 -.756E+01 -.310E+04   0.139E+02 0.800E+01 0.310E+04   -.745E+00 -.430E+00 0.150E+01   -.189E-01 -.109E-01 0.174E-01
   -.242E+02 0.140E+02 -.319E+04   0.241E+02 -.139E+02 0.319E+04   0.542E-01 -.313E-01 0.183E+01   -.192E-01 0.111E-01 0.231E-01
   -.552E-03 0.151E+02 -.310E+04   0.127E-08 -.160E+02 0.310E+04   0.278E-16 0.860E+00 0.150E+01   -.250E-05 0.219E-01 0.174E-01
   0.374E-04 -.279E+02 -.319E+04   -.131E-08 0.279E+02 0.319E+04   0.520E-17 0.626E-01 0.183E+01   0.156E-06 -.222E-01 0.231E-01
   0.242E+02 0.140E+02 -.319E+04   -.241E+02 -.139E+02 0.319E+04   -.542E-01 -.313E-01 0.183E+01   0.192E-01 0.111E-01 0.231E-01
   0.110E+02 -.632E+01 -.305E+04   -.119E+02 0.690E+01 0.305E+04   0.101E+01 -.581E+00 0.347E+00   -.654E-02 0.377E-02 0.830E-02
   0.131E+02 -.756E+01 -.310E+04   -.139E+02 0.800E+01 0.310E+04   0.745E+00 -.430E+00 0.150E+01   0.189E-01 -.109E-01 0.174E-01
   0.331E-03 0.126E+02 -.305E+04   0.411E-09 -.138E+02 0.305E+04   0.000E+00 0.116E+01 0.347E+00   0.933E-06 -.755E-02 0.830E-02
   -.110E+02 -.632E+01 -.305E+04   0.119E+02 0.690E+01 0.305E+04   -.101E+01 -.581E+00 0.347E+00   0.654E-02 0.377E-02 0.830E-02
   0.810E+02 0.468E+02 -.949E+04   -.814E+02 -.470E+02 0.949E+04   0.444E+00 0.257E+00 -.205E+01   -.829E-02 -.479E-02 -.237E-01
   -.103E-03 -.935E+02 -.949E+04   0.119E-07 0.940E+02 0.949E+04   0.694E-17 -.513E+00 -.205E+01   -.226E-05 0.958E-02 -.237E-01
   0.677E+01 -.391E+01 -.959E+04   -.871E+01 0.503E+01 0.959E+04   0.195E+01 -.112E+01 0.386E+01   0.138E-01 -.795E-02 -.450E-02
   -.810E+02 0.468E+02 -.949E+04   0.814E+02 -.470E+02 0.949E+04   -.444E+00 0.257E+00 -.205E+01   0.829E-02 -.479E-02 -.237E-01
   0.353E+02 0.204E+02 -.966E+04   -.337E+02 -.194E+02 0.966E+04   -.161E+01 -.932E+00 -.137E+01   0.117E-01 0.674E-02 -.143E-02
   0.599E-03 -.407E+02 -.966E+04   0.172E-08 0.389E+02 0.966E+04   0.278E-16 0.186E+01 -.137E+01   -.864E-06 -.135E-01 -.143E-02
   0.274E-03 0.782E+01 -.959E+04   -.454E-08 -.101E+02 0.959E+04   -.278E-16 0.225E+01 0.386E+01   0.656E-06 0.159E-01 -.450E-02
   -.353E+02 0.204E+02 -.966E+04   0.337E+02 -.194E+02 0.966E+04   0.161E+01 -.932E+00 -.137E+01   -.117E-01 0.674E-02 -.143E-02
   -.677E+01 -.391E+01 -.959E+04   0.871E+01 0.503E+01 0.959E+04   -.195E+01 -.112E+01 0.386E+01   -.138E-01 -.795E-02 -.451E-02
   -.148E-04 -.852E-05 -.289E+04   0.159E-07 0.566E-07 0.290E+04   -.243E-16 -.347E-17 -.836E+01   -.584E-07 -.337E-07 0.201E-02
   0.352E-04 0.203E-04 -.289E+04   -.525E-09 -.188E-08 0.290E+04   -.130E-17 0.000E+00 -.794E+01   -.131E-06 -.757E-07 -.105E-02
   0.280E-02 0.162E-02 0.348E+02   -.186E-12 -.136E-12 0.500E-11   -.256E-16 0.219E-15 -.350E+02   0.210E-06 0.121E-06 0.867E-01

 POSITION                                       TOTAL-FORCE (eV/Angst)
      0.00000      0.00000      0.00000         0.033931      0.019590     -0.200641
      1.25492      2.17359      0.00000         0.000000     -0.039181     -0.200641
      2.50985      4.34718      0.00000        -0.032724      0.018893     -0.151340
      2.50985      0.00000      0.00000        -0.033931      0.019590     -0.200641
      3.76477      2.17359      0.00000         0.014783      0.008535     -0.182670
      5.01969      4.34718      0.00000         0.000000     -0.017071     -0.182670
      5.01969      0.00000      0.00000         0.000000     -0.037786     -0.151340
      6.27462      2.17359      0.00000        -0.014783      0.008535     -0.182670
      7.52954      4.34718      0.00000         0.032724      0.018893     -0.151340
      1.25492      0.72453      2.04928         0.000000      0.000000      0.075700
      2.50985      2.89812      2.04928         0.035065      0.024045      0.222687
      3.76477      5.07171      2.04928        -0.003291     -0.042390      0.222687
      3.76477      0.72453      2.04928         0.038356      0.018345      0.222687
      5.01969      2.89812      2.04928         0.000000      0.000000      0.170017
      6.27462      5.07171      2.04928         0.003291     -0.042390      0.222687
      6.27462      0.72453      2.04928        -0.038356      0.018345      0.222687
      7.52954      2.89812      2.04928        -0.035065      0.024045      0.222687
      8.78447      5.07171      2.04928         0.000000      0.000000      0.045980
      2.51110      1.44979      4.10627        -0.005755     -0.003323      0.005043
      3.77637      3.61596      4.12805        -0.004684      0.002704      0.003882
      5.01969      5.79479      4.10627         0.000000      0.006645      0.005043
      5.01969      1.46245      4.12805         0.000000     -0.005409      0.003882
      6.26302      3.61596      4.12805         0.004684      0.002704      0.003882
      7.53240      5.79459      4.09937        -0.000550      0.000318     -0.003363
      7.52828      1.44979      4.10627         0.005755     -0.003323      0.005043
      8.78447      3.62596      4.09937         0.000000     -0.000635     -0.003363
     10.03653      5.79459      4.09937         0.000550      0.000318     -0.003363
     11.24661      6.49323      6.19700         0.008110      0.004683     -0.001575
      8.78447      2.22867      6.19700         0.000000     -0.009365     -0.001575
      2.50116      4.35220      6.17723         0.002310     -0.001334      0.000258
      6.32232      6.49323      6.19700        -0.008110      0.004683     -0.001575
      3.71006      2.14201      6.28795        -0.000999     -0.000577     -0.007063
      5.01969      4.41036      6.28795         0.000000      0.001154     -0.007063
      5.01969     -0.01003      6.17723         0.000000      0.002667      0.000258
      6.32933      2.14201      6.28795         0.000999     -0.000577     -0.007063
      7.53823      4.35220      6.17723        -0.002310     -0.001334      0.000258
      1.25492      0.72453      7.27842         0.000000      0.000000     -0.011539
      5.01969      2.89812      7.33034         0.000000      0.000000     -0.003878
    total drift:                                0.002804      0.001619     -0.091258

  FREE ENERGIE OF THE ION-ELECTRON SYSTEM (eV)
  free  energy   TOTEN  =      -152.47219390 eV

  energy  without entropy=     -152.38752721  energy(sigma->0) =     -152.42986055

 d Force =-0.4565621E-07[-0.207E-05, 0.198E-05]  d Energy = 0.2216393E-04-0.222E-04
 d Force = 0.2704723E+01[ 0.270E+01, 0.270E+01]  d Ewald  = 0.2704723E+01 0.442E-08

 reached required accuracy - stopping structural energy minimisation

 total charge

# of ion     s       p       d       tot
  1        0.314   6.159   8.874  15.348
  2        0.312   6.162   8.870  15.344
  3        0.312   6.159   8.872  15.344
  4        0.313   6.159   8.875  15.347
  5        0.312   6.159   8.878  15.349
  6        0.310   6.160   8.870  15.340
  7        0.310   6.160   8.877  15.347
  8        0.316   6.159   8.876  15.351
  9        0.313   6.160   8.875  15.347
 10        0.305   6.206   8.867  15.378
 11        0.297   6.208   8.869  15.374
 12        0.297   6.207   8.872  15.375
 13        0.300   6.209   8.863  15.372
 14        0.305   6.206   8.865  15.376
 15        0.299   6.207   8.870  15.376
 16        0.298   6.209   8.866  15.373
 17        0.298   6.209   8.869  15.376
 18        0.312   6.206   8.865  15.382
 19        0.301   6.206   8.863  15.370
 20        0.299   6.199   8.865  15.362
 21        0.299   6.205   8.869  15.374
 22        0.298   6.204   8.875  15.377
 23        0.299   6.201   8.866  15.366
 24        0.307   6.211   8.857  15.375
 25        0.304   6.209   8.858  15.371
 26        0.306   6.205   8.866  15.377
 27        0.307   6.208   8.861  15.377
 28        0.344   6.238   8.812  15.394
 29        0.346   6.239   8.810  15.395
 30        0.302   6.159   8.871  15.332
 31        0.342   6.238   8.818  15.397
 32        0.326   6.229   8.819  15.373
 33        0.321   6.227   8.799  15.346
 34        0.300   6.166   8.904  15.371
 35        0.334   6.235   8.837  15.406
 36        0.301   6.163   8.895  15.359
 37        0.962   1.283   0.000   2.245
 38        0.960   1.300   0.000   2.260
tot       13.082 225.627 319.018 557.726